LibMLKEM/why3-cvc5/mlkem.adb_914_26_predicate_check_1.smt2
;; produced by cvc5.drv ;;
(set-logic ALL)
(set-info :smt-lib-version 2.6)
;;; generated by SMT-LIB2 driver
;;; SMT-LIB2 driver: bit-vectors, common part
;;; SMT-LIB2: integer arithmetic
;; "pow2"
(declare-fun pow2 (Int) Int)

(declare-const two_power_size_minus_one Int)

;; "two_power_size_minus_one_val"
(assert (= two_power_size_minus_one (pow2 (- 8 1))))

;; "min"
(define-fun min ((x Int) (y Int)) Int
  (ite (<= x y) x y))

;; "max"
(define-fun max ((x Int) (y Int)) Int
  (ite (<= x y) y x))

;; "Min_r"
(assert (forall ((x Int) (y Int)) (=> (<= y x) (= (min x y) y))))

;; "Max_l"
(assert (forall ((x Int) (y Int)) (=> (<= y x) (= (max x y) x))))

;; "Min_comm"
(assert (forall ((x Int) (y Int)) (= (min x y) (min y x))))

;; "Max_comm"
(assert (forall ((x Int) (y Int)) (= (max x y) (max y x))))

;; "Min_assoc"
(assert
  (forall ((x Int) (y Int) (z Int)) (= (min (min x y) z) (min x (min y z)))))

;; "Max_assoc"
(assert
  (forall ((x Int) (y Int) (z Int)) (= (max (max x y) z) (max x (max y z)))))

(declare-const two_power_size_minus_one1 Int)

;; "two_power_size_minus_one_val"
(assert (= two_power_size_minus_one1 (pow2 (- 16 1))))

(declare-sort byte 0)

;; "to_rep"
(declare-fun to_rep (byte) (_ BitVec 8))

;; "of_rep"
(declare-fun of_rep ((_ BitVec 8)) byte)

;; "inversion_axiom"
(assert
  (forall ((x byte)) (! (= (of_rep (to_rep x)) x) :pattern ((to_rep x)) )))

;; "range_axiom"
(assert true)

;; "coerce_axiom"
(assert
  (forall ((x (_ BitVec 8)))
    (! (= (to_rep (of_rep x)) x) :pattern ((to_rep (of_rep x))) )))

(declare-sort map1 0)

;; "has_bounds"
(declare-fun has_bounds (map1
  Int
  Int) Bool)

(declare-const b map1)

(declare-sort u8_bit 0)

;; "in_range"
(define-fun in_range ((x (_ BitVec 8))) Bool
  (and (bvule #x00 x) (bvule x #x01)))

;; "to_rep"
(declare-fun to_rep1 (u8_bit) (_ BitVec 8))

;; "of_rep"
(declare-fun of_rep1 ((_ BitVec 8)) u8_bit)

;; "inversion_axiom"
(assert
  (forall ((x u8_bit))
    (! (= (of_rep1 (to_rep1 x)) x) :pattern ((to_rep1 x)) )))

;; "range_axiom"
(assert
  (forall ((x u8_bit)) (! (in_range (to_rep1 x)) :pattern ((to_rep1 x)) )))

;; "coerce_axiom"
(assert
  (forall ((x (_ BitVec 8)))
    (! (=> (in_range x) (= (to_rep1 (of_rep1 x)) x)) :pattern ((to_rep1
                                                                 (of_rep1 x))) )))

(declare-sort map2 0)

;; "has_bounds"
(declare-fun has_bounds1 (map2
  Int
  Int) Bool)

;; "bytestobits"
(declare-fun bytestobits (map1) map2)

;; "bytestobits__function_guard"
(declare-fun bytestobits__function_guard (map2
  map1) Bool)

(declare-const bits map2)

(declare-sort t 0)

;; "in_range"
(define-fun in_range1 ((x (_ BitVec 16))) Bool
  (and (bvule #x0000 x) (bvule x #x0D00)))

;; "to_rep"
(declare-fun to_rep2 (t) (_ BitVec 16))

;; "of_rep"
(declare-fun of_rep2 ((_ BitVec 16)) t)

;; "inversion_axiom"
(assert
  (forall ((x t)) (! (= (of_rep2 (to_rep2 x)) x) :pattern ((to_rep2 x)) )))

;; "range_axiom"
(assert (forall ((x t)) (! (in_range1 (to_rep2 x)) :pattern ((to_rep2 x)) )))

;; "coerce_axiom"
(assert
  (forall ((x (_ BitVec 16)))
    (! (let ((y (bvurem x #x0D01)))
         (=> (in_range1 y) (= (to_rep2 (of_rep2 x)) y))) :pattern ((to_rep2
                                                                    (of_rep2
                                                                    x))) )))

(declare-sort map3 0)

;; "has_bounds"
(declare-fun has_bounds2 (map3
  Int
  Int) Bool)

;; "get"
(declare-fun get (map3
  Int) t)

;; "in_range"
(define-fun in_range2 ((x (_ BitVec 16))) Bool
  (and (bvule #x0000 x) (bvule x #x0001)))

;; "mlkem__bytedecode1__f__aggregate_def"
(declare-fun mlkem__bytedecode1__f__aggregate_def ((_ BitVec 16)) map3)

;; "bytestobits__post_axiom"
(assert
  (forall ((param__b map1))
    (! (=>
         (has_bounds param__b 0 31)
         (let ((result (bytestobits param__b)))
           (=>
             (bytestobits__function_guard result param__b)
             (has_bounds1 result 0 255)))) :pattern ((bytestobits param__b)) )))

;; Goal "def'vc"
;; File "mlkem.adb", line 907, characters 0-0
(assert
  (not
  (=>
    (has_bounds b 0 31)
    (let ((o b))
      (let ((mlkem__bytedecode1__bits__assume (bytestobits o)))
        (=>
          (and
            (bytestobits__function_guard mlkem__bytedecode1__bits__assume o)
            (has_bounds1 mlkem__bytedecode1__bits__assume 0 255))
          (=>
            (= mlkem__bytedecode1__bits__assume bits)
            (=>
              (has_bounds1 bits 0 255)
              (forall ((temp___4488 map3))
                (=>
                  (and
                    (and
                      (has_bounds2 temp___4488 0 255)
                      (forall ((temp___4487 Int))
                        (! (=>
                             (and (<= 0 temp___4487) (<= temp___4487 255))
                             (= (to_rep2 (get temp___4488 temp___4487)) #x0000)) :pattern (
                        (get
                          temp___4488
                          temp___4487)) )))
                    (= temp___4488 (mlkem__bytedecode1__f__aggregate_def
                                     #x0000)))
                  (forall ((i Int))
                    (=>
                      (and (<= 0 i) (<= i 255))
                      (in_range2 (to_rep2 (get temp___4488 i)))))))))))))))

(check-sat)
